%chk=D:\scan-test\test.chk
# opt(addred) hf/3-21g geom=connectivity

Title Card Required

0 1
 C                  0.26729559    0.23584905    0.00000000
 H                  0.62395002   -0.77296095    0.00000000
 H                  0.62396843    0.74024724   -0.87365150
 H                 -0.80270441    0.23586223    0.00000000
 C                  0.78063781    0.96180532    1.25740497
 H                  0.42558147    1.97117841    1.25642745
 H                  0.42236870    0.45853689    2.13105486
 H                  1.85063600    0.96009864    1.25838372

 1 2 1.0 3 1.0 4 1.0 5 1.0
 2
 3
 4
 5 6 1.0 7 1.0 8 1.0
 6
 7
 8

D 3 1 5 6 S 6 60.000000

