# opt(nomicro)

IM1 optimized by g-xTB

0 2
 Co      -0.55793706       1.05010331       0.16429155
 N        0.73724369       2.46696255      -0.25558068
 N       -1.76768642      -0.32568912      -0.06157692
 N       -2.49327038      -2.43344004      -0.44508643
 N        0.98282730      -0.08347290      -0.33994838
 N        0.97016872      -1.39367429      -0.07342709
 C        0.49833262       3.77079865      -0.32311422
 H       -0.49748622       4.07293473      -0.03784398
 C        1.47755410       4.67318082      -0.68741025
 H        1.24909797       5.72502576      -0.72908443
 C        2.74746264       4.19975878      -0.97393577
 H        3.53681322       4.88207871      -1.24963671
 C        2.99686504       2.84211734      -0.90066208
 H        3.97103906       2.42857300      -1.11246431
 C        1.95544787       2.00125727      -0.54991326
 C       -1.47817186      -1.61724410      -0.32819373
 C       -3.58110166      -1.61263139      -0.24870279
 C       -3.14975073      -0.30341638      -0.01896217
 C        2.08110118       0.56394073      -0.46008646
 H        3.05316070       0.10081485      -0.47129310
 C       -0.13071960      -2.13249965      -0.65692399
 H       -0.07414969      -3.15658669      -0.29081494
 H       -0.03878050      -2.16526684      -1.74918344
 C       -4.93269778      -1.93291699      -0.27156698
 H       -5.23401755      -2.95740529      -0.44561708
 C       -5.83575525      -0.91552384      -0.07289198
 H       -6.89645559      -1.12687883      -0.08494357
 C       -5.40292302       0.39822442       0.14370957
 H       -6.13724340       1.17792783       0.29377972
 C       -4.06548976       0.72499114       0.17361024
 H       -3.72878506       1.73137028       0.36190811
 Cl      -1.54939201       2.29420451       1.62153293
 C        2.20500353      -2.08265529       0.01488903
 C        2.79710730      -2.65132337      -1.10029367
 C        2.80310239      -2.18062813       1.26012715
 C        3.99533557      -3.33173789      -0.96299183
 H        2.31966782      -2.57424487      -2.06606469
 C        4.00507845      -2.85470843       1.38912370
 H        2.31220403      -1.73482521       2.11255842
 C        4.60059496      -3.43140282       0.27864344
 H        4.45372227      -3.78668681      -1.82898596
 H        4.46987386      -2.93984502       2.36029085
 H        5.53305255      -3.96582183       0.38227854

