! XTB2 NEB-TS

%pal nprocs 14 end

%maxcore 4096

%neb
 Product "_product_orca.xyz"
 NImages 16
 Free_End true
end

* xyzfile 0 1 _qst2-test_orca.xyz
