#p

Exported from xTBridge

0 1
 C      -0.938858    -0.035798     1.331364
 H      -0.460943    -0.812240     1.902480
 H      -1.998747    -0.142394     1.177870
 C      -0.318572     1.144425     1.115469
 H      -0.869487     2.007951     0.784957
 H       0.663510     1.330533     1.513309
 C       0.641634     1.125262    -0.989822
 H      -0.377400     1.158805    -1.328089
 H       1.175704     2.060605    -1.033947
 C       1.315143    -0.044982    -0.886386
 H       2.390109    -0.026656    -0.763828
 C       0.661389    -1.280840    -0.662914
 H       1.281154    -2.123335    -0.385316
 C      -0.683065    -1.380042    -0.536803
 H      -1.344683    -0.668618    -0.995160
 H      -1.136887    -2.312676    -0.243183
