%chk=D:\test18\qst2-test.chk
# opt(qst2,nomicro,noeigentest) geom=connectivity

Title Card Required

0 1
 C                 -0.14289620    1.35003658   -1.08329564
 H                  0.40944722    0.45224584   -0.89947908
 H                 -1.21134753    1.31830167   -1.13130245
 C                  0.50613151    2.52718195   -1.25551308
 H                 -0.04621191    3.42497269   -1.43932964
 H                  1.57458284    2.55891685   -1.20750627
 C                  1.41163483    2.57184264   -3.08423162
 H                  0.34302819    2.51925863   -3.06957685
 H                  1.89698787    3.51008066   -3.25464824
 C                  2.15245992    1.45420316   -2.88769349
 H                  3.22106657    1.50678716   -2.90234825
 C                  1.45391442    0.10384189   -2.64242096
 H                  2.03882627   -0.77654549   -2.47599919
 C                  0.10092160    0.02674448   -2.63663786
 H                 -0.48930315    0.90369301   -2.80245714
 H                 -0.37875736   -0.91430633   -2.46566570

 1 2 1.0 3 1.0 4 2.0
 2
 3
 4 5 1.0 6 1.0
 5
 6
 7 8 1.0 9 1.0 10 2.0
 8
 9
 10 11 1.0 12 1.0
 11
 12 13 1.0 14 2.0
 13
 14 15 1.0 16 1.0
 15
 16

Title Card Required

0 1
 C                  0.83963194    1.46292983   -0.80108129
 H                  1.70948144    1.59368962   -0.19184921
 H                 -0.02677375    1.42008038   -0.17465883
 C                  0.78634010    2.63567864   -1.80964212
 H                  0.33432555    3.47872911   -1.33021668
 H                  1.77771388    2.88771004   -2.12358193
 C                  0.05679938    2.19937709   -3.10462462
 H                 -0.91238667    1.79266064   -2.90422470
 H                 -0.05256722    3.03624158   -3.76234552
 C                  1.03161595    1.14894333   -3.74845242
 H                  1.19840760    1.08982123   -4.80371785
 C                  1.67090422    0.34666822   -2.85943493
 H                  2.62609441   -0.10803848   -3.01991395
 C                  0.83317913    0.17948731   -1.61716872
 H                 -0.17020153    0.03353895   -1.95896740
 H                  1.13792074   -0.66026156   -1.02822528

 1 2 1.0 3 1.0 4 1.0 14 1.0
 2
 3
 4 5 1.0 6 1.0 7 1.0
 5
 6
 7 8 1.0 9 1.0 10 1.0
 8
 9
 10 11 1.0 12 2.0
 11
 12 13 1.0 14 1.0
 13
 14 15 1.0 16 1.0
 15
 16

